33D32945 STP File, STP Format Version 1.0

SECTION Comments
Name "edge_n11_d3_s17"
Problem "Euclidean Steiner Tree Problem"
Remark "Generated with STPGenerator. 3 dimensions."
END

SECTION Graph
Nodes 11
END

SECTION Coordinates
DDD 0 0.5717940003 0.5717940003 0.5717940003
DDD 1 0.0018524737 0.0018524737 0.0018524737
DDD 2 0.1227083798 0.1227083798 0.1227083798
DDD 3 0.9171544332 0.9171544332 0.9171544332
DDD 4 0.8540148287 0.8540148287 0.8540148287
DDD 5 0.2275495600 0.2275495600 0.2275495600
DDD 6 0.1078885724 0.1078885724 0.1078885724
DDD 7 0.4860870128 0.4860870128 0.4860870128
DDD 8 0.6620165676 0.6620165676 0.6620165676
DDD 9 0.9043156765 0.9043156765 0.9043156765
DDD 10 0.6258278161 0.6258278161 0.6258278161
END
